27 30 92 94 66 32 36 65 58 14 26 45 85 42 
2 64 5 1 35 6 95 50 44 81 41 21 
13 80 96 78 
69 72 53 4 91 23 40 56 15 47 25 
75 61 74 100 24 20 49 3 55 59 86 84 46 18 19 12 52 76 70 73 79 90 10 
22 93 7 37 89 34 60 82 
29 83 77 
62 63 67 97 33 68 99 98 39 31 54 38 28 88 57 71 51 16 17 43 9 11 87 48 8 

